NAME : Unnamed.898.tour
COMMENT : Length = 898
COMMENT : Found by LKH [Keld Helsgaun] Wed Oct 22 13:41:30 2014
TYPE : TOUR
DIMENSION : 113
TOUR_SECTION
1
13
15
10
18
113
4
2
20
11
12
8
99
97
102
104
111
112
81
50
25
87
78
90
76
94
83
92
84
42
65
33
23
26
44
43
35
54
60
36
68
79
93
86
80
75
82
85
74
88
89
27
46
69
24
63
51
30
70
71
64
37
59
41
52
47
61
32
38
28
39
55
34
29
48
40
67
31
72
91
96
22
66
53
62
73
57
45
49
56
58
77
100
98
95
101
106
103
110
109
108
17
19
3
14
9
5
7
6
21
16
107
105
-1
EOF
